c colouring generated by benchmark framework
p edge 300 21695
v 1 23
v 2 20
v 3 26
v 4 48
v 5 0
v 6 1
v 7 37
v 8 37
v 9 22
v 10 29
v 11 23
v 12 53
v 13 34
v 14 25
v 15 1
v 16 38
v 17 6
v 18 8
v 19 19
v 20 6
v 21 27
v 22 12
v 23 42
v 24 9
v 25 22
v 26 11
v 27 49
v 28 29
v 29 37
v 30 42
v 31 24
v 32 33
v 33 23
v 34 12
v 35 50
v 36 3
v 37 10
v 38 53
v 39 7
v 40 27
v 41 17
v 42 39
v 43 33
v 44 8
v 45 33
v 46 13
v 47 54
v 48 40
v 49 10
v 50 30
v 51 24
v 52 3
v 53 9
v 54 10
v 55 22
v 56 21
v 57 49
v 58 3
v 59 17
v 60 5
v 61 9
v 62 20
v 63 11
v 64 0
v 65 1
v 66 44
v 67 50
v 68 14
v 69 30
v 70 7
v 71 8
v 72 3
v 73 41
v 74 6
v 75 2
v 76 7
v 77 7
v 78 2
v 79 16
v 80 47
v 81 13
v 82 45
v 83 12
v 84 35
v 85 26
v 86 12
v 87 28
v 88 4
v 89 5
v 90 18
v 91 33
v 92 18
v 93 50
v 94 21
v 95 25
v 96 2
v 97 15
v 98 25
v 99 18
v 100 39
v 101 11
v 102 17
v 103 33
v 104 38
v 105 1
v 106 23
v 107 52
v 108 14
v 109 13
v 110 6
v 111 52
v 112 35
v 113 15
v 114 18
v 115 49
v 116 0
v 117 34
v 118 13
v 119 3
v 120 51
v 121 5
v 122 8
v 123 0
v 124 16
v 125 21
v 126 7
v 127 29
v 128 11
v 129 38
v 130 12
v 131 35
v 132 28
v 133 32
v 134 54
v 135 32
v 136 16
v 137 3
v 138 4
v 139 21
v 140 20
v 141 26
v 142 0
v 143 54
v 144 24
v 145 14
v 146 28
v 147 1
v 148 10
v 149 10
v 150 19
v 151 9
v 152 47
v 153 28
v 154 22
v 155 19
v 156 13
v 157 24
v 158 4
v 159 18
v 160 36
v 161 2
v 162 51
v 163 14
v 164 8
v 165 30
v 166 26
v 167 32
v 168 38
v 169 54
v 170 31
v 171 54
v 172 2
v 173 29
v 174 17
v 175 32
v 176 4
v 177 9
v 178 15
v 179 20
v 180 14
v 181 10
v 182 15
v 183 25
v 184 7
v 185 1
v 186 11
v 187 14
v 188 44
v 189 22
v 190 3
v 191 7
v 192 31
v 193 30
v 194 52
v 195 21
v 196 7
v 197 23
v 198 25
v 199 4
v 200 23
v 201 10
v 202 45
v 203 45
v 204 0
v 205 22
v 206 16
v 207 19
v 208 6
v 209 4
v 210 8
v 211 39
v 212 15
v 213 0
v 214 16
v 215 20
v 216 28
v 217 12
v 218 18
v 219 20
v 220 22
v 221 8
v 222 43
v 223 19
v 224 46
v 225 16
v 226 22
v 227 19
v 228 36
v 229 2
v 230 26
v 231 13
v 232 19
v 233 10
v 234 30
v 235 9
v 236 5
v 237 5
v 238 17
v 239 38
v 240 49
v 241 14
v 242 32
v 243 29
v 244 40
v 245 31
v 246 5
v 247 31
v 248 8
v 249 32
v 250 20
v 251 34
v 252 34
v 253 6
v 254 19
v 255 37
v 256 12
v 257 27
v 258 15
v 259 17
v 260 46
v 261 47
v 262 17
v 263 27
v 264 28
v 265 43
v 266 20
v 267 13
v 268 39
v 269 31
v 270 33
v 271 9
v 272 35
v 273 34
v 274 45
v 275 11
v 276 4
v 277 24
v 278 27
v 279 22
v 280 30
v 281 31
v 282 26
v 283 8
v 284 5
v 285 30
v 286 32
v 287 10
v 288 18
v 289 40
v 290 1
v 291 43
v 292 26
v 293 3
v 294 36
v 295 27
v 296 11
v 297 41
v 298 16
v 299 53
v 300 2
